# Solution for model problem
# Objective value = 6
CLIENT_PE7_0 1
CLIENT_PE11_2 1
src_1 1
iir_4 1
idct_4 1
sink_2 1
CLIENT_PE0_0 0
CLIENT_PE2_0 0
CLIENT_PE3_0 0
CLIENT_PE4_0 0
CLIENT_PE6_0 0
CLIENT_PE13_0 0
CLIENT_PE14_0 0
CLIENT_PE0_2 0
CLIENT_PE1_2 0
CLIENT_PE2_2 0
CLIENT_PE3_2 0
CLIENT_PE4_2 0
CLIENT_PE5_2 0
CLIENT_PE6_2 0
CLIENT_PE7_2 0
CLIENT_PE8_2 0
CLIENT_PE9_2 0
CLIENT_PE10_2 0
CLIENT_PE12_2 0
CLIENT_PE13_2 0
CLIENT_PE14_2 0
CLIENT_PE15_2 0
CLIENT_PE16_2 0
src_0 0
src_2 0
src_3 0
src_4 0
iir_0 0
iir_1 0
iir_2 0
iir_3 0
idct_0 0
idct_1 0
idct_2 0
idct_3 0
sink_0 0
sink_1 0
sink_3 0
sink_4 0
